
Gurobi 9.0.1 (linux64) logging started Thu Apr 30 05:57:47 2020

Gurobi Optimizer version 9.0.1 build v9.0.1rc0 (linux64)
Optimize a model with 896 rows, 990 columns and 6984 nonzeros
Model fingerprint: 0x93545b6b
Variable types: 0 continuous, 990 integer (980 binary)
Coefficient statistics:
  Matrix range     [1e+00, 5e+00]
  Objective range  [1e+00, 1e+02]
  Bounds range     [1e+00, 1e+00]
  RHS range        [1e+00, 1e+00]

User MIP start produced solution with objective 495 (0.00s)
Loaded user MIP start with objective 495

Presolve removed 260 rows and 384 columns
Presolve time: 0.06s
Presolved: 636 rows, 606 columns, 4806 nonzeros
Variable types: 0 continuous, 606 integer (598 binary)

Root relaxation: objective 3.773176e+02, 482 iterations, 0.02 seconds

    Nodes    |    Current Node    |     Objective Bounds      |     Work
 Expl Unexpl |  Obj  Depth IntInf | Incumbent    BestBd   Gap | It/Node Time

     0     0  377.31759    0  204  495.00000  377.31759  23.8%     -    0s
     0     0  392.16575    0  228  495.00000  392.16575  20.8%     -    0s
     0     0  392.17291    0  229  495.00000  392.17291  20.8%     -    0s
     0     0  392.17438    0  235  495.00000  392.17438  20.8%     -    0s
     0     0  398.52184    0  231  495.00000  398.52184  19.5%     -    0s
     0     0  399.32792    0  231  495.00000  399.32792  19.3%     -    0s
     0     0  399.44275    0  231  495.00000  399.44275  19.3%     -    0s
     0     0  399.44541    0  231  495.00000  399.44541  19.3%     -    0s
     0     0  411.75033    0  236  495.00000  411.75033  16.8%     -    0s
     0     0  413.01643    0  236  495.00000  413.01643  16.6%     -    0s
     0     0  413.19372    0  238  495.00000  413.19372  16.5%     -    0s
     0     0  413.20642    0  239  495.00000  413.20642  16.5%     -    0s
     0     0  418.38109    0  253  495.00000  418.38109  15.5%     -    0s
     0     0  419.67278    0  260  495.00000  419.67278  15.2%     -    0s
     0     0  420.01298    0  258  495.00000  420.01298  15.1%     -    0s
     0     0  420.05905    0  265  495.00000  420.05905  15.1%     -    0s
     0     0  420.10536    0  264  495.00000  420.10536  15.1%     -    0s
     0     0  420.10738    0  265  495.00000  420.10738  15.1%     -    0s
     0     0  421.23319    0  266  495.00000  421.23319  14.9%     -    0s
     0     0  421.56208    0  262  495.00000  421.56208  14.8%     -    0s
     0     0  421.65661    0  266  495.00000  421.65661  14.8%     -    1s
     0     0  421.66642    0  267  495.00000  421.66642  14.8%     -    1s
     0     0  424.01579    0  263  495.00000  424.01579  14.3%     -    1s
     0     0  424.20942    0  248  495.00000  424.20942  14.3%     -    1s
     0     0  424.23071    0  251  495.00000  424.23071  14.3%     -    1s
     0     0  425.30164    0  244  495.00000  425.30164  14.1%     -    1s
H    0     0                     448.0000000  425.30164  5.07%     -    1s
     0     0  425.88338    0  245  448.00000  425.88338  4.94%     -    1s
     0     0  425.88617    0  242  448.00000  425.88617  4.94%     -    1s
     0     0  426.79299    0  242  448.00000  426.79299  4.73%     -    1s
     0     0  426.79299    0  201  448.00000  426.79299  4.73%     -    1s
     0     0  427.62417    0  199  448.00000  427.62417  4.55%     -    1s
H    0     0                     436.0000000  427.62417  1.92%     -    1s
H    0     0                     435.0000000  427.62417  1.70%     -    1s
     0     0  428.00889    0  180  435.00000  428.00889  1.61%     -    1s
     0     0  428.01099    0  178  435.00000  428.01099  1.61%     -    1s
     0     0  431.12289    0  154  435.00000  431.12289  0.89%     -    1s
     0     0  431.12289    0  138  435.00000  431.12289  0.89%     -    1s
     0     0  431.60972    0  116  435.00000  431.60972  0.78%     -    1s
     0     0  431.63106    0  130  435.00000  431.63106  0.77%     -    1s
     0     0  431.63163    0  127  435.00000  431.63163  0.77%     -    1s
     0     0  431.63200    0  128  435.00000  431.63200  0.77%     -    1s
     0     0  431.63204    0  128  435.00000  431.63204  0.77%     -    1s
     0     0  431.82344    0  133  435.00000  431.82344  0.73%     -    1s
     0     0  431.85428    0  128  435.00000  431.85428  0.72%     -    1s
     0     0  431.85540    0  126  435.00000  431.85540  0.72%     -    1s
     0     0  431.85542    0  127  435.00000  431.85542  0.72%     -    1s
     0     0  431.99006    0  130  435.00000  431.99006  0.69%     -    1s
     0     0  432.05238    0  128  435.00000  432.05238  0.68%     -    1s
     0     0  432.06892    0  128  435.00000  432.06892  0.67%     -    1s
     0     0  432.06982    0  128  435.00000  432.06982  0.67%     -    1s
     0     0  432.06982    0  128  435.00000  432.06982  0.67%     -    1s
     0     0  432.19124    0  124  435.00000  432.19124  0.65%     -    1s
     0     0  432.22548    0  122  435.00000  432.22548  0.64%     -    1s
     0     0  432.23842    0  126  435.00000  432.23842  0.63%     -    1s
     0     0  432.23867    0  128  435.00000  432.23867  0.63%     -    1s
     0     0  432.24439    0  125  435.00000  432.24439  0.63%     -    1s
     0     0  432.24912    0  128  435.00000  432.24912  0.63%     -    1s
     0     0  432.25216    0  128  435.00000  432.25216  0.63%     -    1s
     0     0  432.25217    0  131  435.00000  432.25217  0.63%     -    1s
     0     0  432.25345    0  131  435.00000  432.25345  0.63%     -    1s
     0     0  432.25345    0  131  435.00000  432.25345  0.63%     -    1s
     0     2  432.26942    0  129  435.00000  432.26942  0.63%     -    1s

Cutting planes:
  Gomory: 2
  Clique: 6
  MIR: 21
  Zero half: 6
  RLT: 74

Explored 208 nodes (12702 simplex iterations) in 2.31 seconds
Thread count was 1 (of 40 available processors)

Solution count 4: 435 436 448 495 

Optimal solution found (tolerance 1.00e-04)
Best objective 4.350000000000e+02, best bound 4.350000000000e+02, gap 0.0000%

User-callback calls 1318, time in user-callback 0.00 sec
